c generated by sgen
p cnf 89 188
-2 -3 -4 0
-1 -3 -4 0
-1 -2 -4 0
-1 -2 -3 0
-6 -7 -8 0
-5 -7 -8 0
-5 -6 -8 0
-5 -6 -7 0
-10 -11 -12 0
-9 -11 -12 0
-9 -10 -12 0
-9 -10 -11 0
-14 -15 -16 0
-13 -15 -16 0
-13 -14 -16 0
-13 -14 -15 0
-18 -19 -20 0
-17 -19 -20 0
-17 -18 -20 0
-17 -18 -19 0
-22 -23 -24 0
-21 -23 -24 0
-21 -22 -24 0
-21 -22 -23 0
-26 -27 -28 0
-25 -27 -28 0
-25 -26 -28 0
-25 -26 -27 0
-30 -31 -32 0
-29 -31 -32 0
-29 -30 -32 0
-29 -30 -31 0
-34 -35 -36 0
-33 -35 -36 0
-33 -34 -36 0
-33 -34 -35 0
-38 -39 -40 0
-37 -39 -40 0
-37 -38 -40 0
-37 -38 -39 0
-42 -43 -44 0
-41 -43 -44 0
-41 -42 -44 0
-41 -42 -43 0
-46 -47 -48 0
-45 -47 -48 0
-45 -46 -48 0
-45 -46 -47 0
-50 -51 -52 0
-49 -51 -52 0
-49 -50 -52 0
-49 -50 -51 0
-54 -55 -56 0
-53 -55 -56 0
-53 -54 -56 0
-53 -54 -55 0
-58 -59 -60 0
-57 -59 -60 0
-57 -58 -60 0
-57 -58 -59 0
-62 -63 -64 0
-61 -63 -64 0
-61 -62 -64 0
-61 -62 -63 0
-66 -67 -68 0
-65 -67 -68 0
-65 -66 -68 0
-65 -66 -67 0
-70 -71 -72 0
-69 -71 -72 0
-69 -70 -72 0
-69 -70 -71 0
-74 -75 -76 0
-73 -75 -76 0
-73 -74 -76 0
-73 -74 -75 0
-78 -79 -80 0
-77 -79 -80 0
-77 -78 -80 0
-77 -78 -79 0
-82 -83 -84 0
-81 -83 -84 0
-81 -82 -84 0
-81 -82 -83 0
-85 -86 -87 0
-85 -86 -88 0
-85 -86 -89 0
-85 -87 -88 0
-85 -87 -89 0
-85 -88 -89 0
-86 -87 -88 0
-86 -87 -89 0
-86 -88 -89 0
-87 -88 -89 0
65 77 58 0
75 77 58 0
75 65 58 0
75 65 77 0
55 15 69 0
18 15 69 0
18 55 69 0
18 55 15 0
79 88 83 0
26 88 83 0
26 79 83 0
26 79 88 0
60 25 1 0
37 25 1 0
37 60 1 0
37 60 25 0
29 21 7 0
28 21 7 0
28 29 7 0
28 29 21 0
44 78 30 0
70 78 30 0
70 44 30 0
70 44 78 0
48 51 32 0
82 51 32 0
82 48 32 0
82 48 51 0
46 73 71 0
85 73 71 0
85 46 71 0
85 46 73 0
68 3 84 0
24 3 84 0
24 68 84 0
24 68 3 0
4 10 56 0
87 10 56 0
87 4 56 0
87 4 10 0
76 34 19 0
5 34 19 0
5 76 19 0
5 76 34 0
22 16 86 0
39 16 86 0
39 22 86 0
39 22 16 0
9 17 49 0
59 17 49 0
59 9 49 0
59 9 17 0
52 72 63 0
2 72 63 0
2 52 63 0
2 52 72 0
62 80 53 0
33 80 53 0
33 62 53 0
33 62 80 0
12 40 81 0
36 40 81 0
36 12 81 0
36 12 40 0
54 47 89 0
42 47 89 0
42 54 89 0
42 54 47 0
14 74 64 0
31 74 64 0
31 14 64 0
31 14 74 0
38 8 45 0
66 8 45 0
66 38 45 0
66 38 8 0
6 61 57 0
43 61 57 0
43 6 57 0
43 6 61 0
13 35 27 0
50 35 27 0
50 13 27 0
50 13 35 0
23 11 41 0
23 11 20 0
23 11 67 0
23 41 20 0
23 41 67 0
23 20 67 0
11 41 20 0
11 41 67 0
11 20 67 0
41 20 67 0
